sat
(:binary-propagations  371
 :decisions            572
 :del-clause           96
 :final-checks         11
 :max-generation       1
 :max-memory           23.59
 :memory               21.02
 :mk-bool-var          537
 :mk-clause            153
 :mk-clause-binary     341
 :num-allocs           9536155
 :num-checks           1
 :propagations         502
 :quant-instantiations 96
 :restarts             10
 :rlimit-count         221490
 :time                 0.06)
